experiment/data/hgs-res/Vrp-Set-A-n45/Vrp-Set-A-n45-hgs/0.hgs1.vrp
NAME : 0
COMMENT : CVRP Instance
TYPE : CVRP
DIMENSION : 45
EDGE_WEIGHT_TYPE : EUC_2D
CAPACITY : 100
NODE_COORD_SECTION
1	31.0	73.0
2	11.0	67.0
3	52.0	96.0
4	81.0	29.0
5	97.0	62.0
6	71.0	5.0
7	6.0	56.0
8	48.0	50.0
9	91.0	17.0
10	49.0	68.0
11	85.0	29.0
12	11.0	16.0
13	74.0	98.0
14	56.0	37.0
15	13.0	81.0
16	66.0	80.0
17	96.0	55.0
18	36.0	17.0
19	32.0	23.0
20	6.0	13.0
21	64.0	30.0
22	87.0	5.0
23	75.0	61.0
24	40.0	72.0
25	1.0	44.0
26	60.0	95.0
27	27.0	49.0
28	15.0	33.0
29	46.0	53.0
30	28.0	43.0
31	3.0	9.0
32	1.0	100.0
33	53.0	46.0
34	98.0	8.0
35	6.0	25.0
36	7.0	81.0
37	96.0	88.0
38	2.0	35.0
39	32.0	94.0
40	95.0	94.0
41	9.0	11.0
42	96.0	16.0
43	90.0	68.0
44	33.0	31.0
45	6.0	59.0
DEMAND_SECTION
1	0
2	19
3	2
4	12
5	20
6	6
7	17
8	8
9	14
10	2
11	8
12	5
13	7
14	22
15	14
16	17
17	23
18	15
19	21
20	2
21	24
22	10
23	20
24	6
25	21
26	10
27	6
28	13
29	21
30	24
31	11
32	16
33	8
34	11
35	11
36	22
37	17
38	22
39	17
40	8
41	23
42	5
43	3
44	18
45	12
DEPOT_SECTION
1
-1
EOF
