experiment/data/hgs-res/Vrp-Set-A-n45/Vrp-Set-A-n45-hgs/0.hgs1.tour
Route #1: 26 27 37 24 6 1
Route #2: 18 17 11 40 30 19 34 44
Route #3: 23 28 7 13 43 29
Route #4: 32 20 5 21 33 41 8 10 3
Route #5: 9 22 16 4 42 36 39 12
Route #6: 15 25 2 38 31 35 14
Cost 944.876
